p tw 320 1408
1 33
2 34
3 35
4 36
5 37
6 38
7 39
8 40
9 41
10 42
11 43
12 44
13 45
14 46
15 47
16 48
17 49
18 50
19 51
20 52
21 53
22 54
23 55
24 56
25 57
26 58
27 59
28 60
29 61
30 62
31 63
32 64
33 108
33 135
33 155
33 159
33 161
33 162
34 67
34 75
34 94
34 128
34 129
34 130
35 97
35 116
35 121
35 137
35 141
35 142
36 85
36 139
36 147
36 150
36 151
36 152
37 105
37 106
37 107
37 108
37 109
37 110
38 98
38 132
38 144
38 150
38 159
38 160
39 66
39 87
39 88
39 89
39 90
39 91
40 122
40 125
40 157
40 166
40 171
40 173
41 68
41 106
41 124
41 143
41 153
41 154
42 83
42 111
42 112
42 113
42 114
42 115
43 112
43 120
43 124
43 125
43 126
43 127
44 102
44 105
44 137
44 138
44 139
44 140
45 99
45 113
45 151
45 163
45 166
45 167
46 84
46 128
46 131
46 134
46 135
46 136
47 65
47 71
47 83
47 84
47 85
47 86
48 69
48 81
48 114
48 129
48 174
48 176
49 87
49 93
49 101
49 102
49 103
49 104
50 78
50 95
50 101
50 131
50 132
50 133
51 148
51 153
51 164
51 168
51 169
51 170
52 72
52 92
52 93
52 94
52 95
52 96
53 73
53 92
53 97
53 98
53 99
53 100
54 71
54 72
54 73
54 74
54 75
54 76
55 79
55 89
55 141
55 147
55 148
55 149
56 107
56 134
56 155
56 156
56 157
56 158
57 74
57 111
57 116
57 117
57 118
57 119
58 109
58 117
58 156
58 163
58 164
58 165
59 80
59 118
59 145
59 168
59 171
59 172
60 77
60 88
60 120
60 121
60 122
60 123
61 103
61 138
61 143
61 144
61 145
61 146
62 65
62 66
62 67
62 68
62 69
62 70
63 90
63 126
63 161
63 169
63 174
63 175
64 77
64 78
64 79
64 80
64 81
64 82
65 66
65 67
65 68
65 69
65 70
65 71
65 83
65 84
65 85
65 86
66 67
66 68
66 69
66 70
66 87
66 88
66 89
66 90
66 91
67 68
67 69
67 70
67 75
67 94
67 128
67 129
67 130
68 69
68 70
68 106
68 124
68 143
68 153
68 154
69 70
69 81
69 114
69 129
69 174
69 176
70 177
70 178
70 179
70 180
70 181
70 182
71 72
71 73
71 74
71 75
71 76
71 83
71 84
71 85
71 86
72 73
72 74
72 75
72 76
72 92
72 93
72 94
72 95
72 96
73 74
73 75
73 76
73 92
73 97
73 98
73 99
73 100
74 75
74 76
74 111
74 116
74 117
74 118
74 119
75 76
75 94
75 128
75 129
75 130
76 183
76 184
76 185
76 186
76 187
76 188
77 78
77 79
77 80
77 81
77 82
77 88
77 120
77 121
77 122
77 123
78 79
78 80
78 81
78 82
78 95
78 101
78 131
78 132
78 133
79 80
79 81
79 82
79 89
79 141
79 147
79 148
79 149
80 81
80 82
80 118
80 145
80 168
80 171
80 172
81 82
81 114
81 129
81 174
81 176
82 189
82 190
82 191
82 192
82 193
82 194
83 84
83 85
83 86
83 111
83 112
83 113
83 114
83 115
84 85
84 86
84 128
84 131
84 134
84 135
84 136
85 86
85 139
85 147
85 150
85 151
85 152
86 177
86 183
86 195
86 196
86 197
86 198
87 88
87 89
87 90
87 91
87 93
87 101
87 102
87 103
87 104
88 89
88 90
88 91
88 120
88 121
88 122
88 123
89 90
89 91
89 141
89 147
89 148
89 149
90 91
90 126
90 161
90 169
90 174
90 175
91 178
91 199
91 200
91 201
91 202
91 203
92 93
92 94
92 95
92 96
92 97
92 98
92 99
92 100
93 94
93 95
93 96
93 101
93 102
93 103
93 104
94 95
94 96
94 128
94 129
94 130
95 96
95 101
95 131
95 132
95 133
96 184
96 204
96 205
96 206
96 207
96 208
97 98
97 99
97 100
97 116
97 121
97 137
97 141
97 142
98 99
98 100
98 132
98 144
98 150
98 159
98 160
99 100
99 113
99 151
99 163
99 166
99 167
100 185
100 204
100 209
100 210
100 211
100 212
101 102
101 103
101 104
101 131
101 132
101 133
102 103
102 104
102 105
102 137
102 138
102 139
102 140
103 104
103 138
103 143
103 144
103 145
103 146
104 199
104 205
104 213
104 214
104 215
104 216
105 106
105 107
105 108
105 109
105 110
105 137
105 138
105 139
105 140
106 107
106 108
106 109
106 110
106 124
106 143
106 153
106 154
107 108
107 109
107 110
107 134
107 155
107 156
107 157
107 158
108 109
108 110
108 135
108 155
108 159
108 161
108 162
109 110
109 117
109 156
109 163
109 164
109 165
110 217
110 218
110 219
110 220
110 221
110 222
111 112
111 113
111 114
111 115
111 116
111 117
111 118
111 119
112 113
112 114
112 115
112 120
112 124
112 125
112 126
112 127
113 114
113 115
113 151
113 163
113 166
113 167
114 115
114 129
114 174
114 176
115 195
115 223
115 224
115 225
115 226
115 227
116 117
116 118
116 119
116 121
116 137
116 141
116 142
117 118
117 119
117 156
117 163
117 164
117 165
118 119
118 145
118 168
118 171
118 172
119 186
119 223
119 228
119 229
119 230
119 231
120 121
120 122
120 123
120 124
120 125
120 126
120 127
121 122
121 123
121 137
121 141
121 142
122 123
122 125
122 157
122 166
122 171
122 173
123 189
123 200
123 232
123 233
123 234
123 235
124 125
124 126
124 127
124 143
124 153
124 154
125 126
125 127
125 157
125 166
125 171
125 173
126 127
126 161
126 169
126 174
126 175
127 224
127 232
127 236
127 237
127 238
127 239
128 129
128 130
128 131
128 134
128 135
128 136
129 130
129 174
129 176
130 179
130 187
130 206
130 240
130 241
130 242
131 132
131 133
131 134
131 135
131 136
132 133
132 144
132 150
132 159
132 160
133 190
133 207
133 213
133 243
133 244
133 245
134 135
134 136
134 155
134 156
134 157
134 158
135 136
135 155
135 159
135 161
135 162
136 196
136 240
136 243
136 246
136 247
136 248
137 138
137 139
137 140
137 141
137 142
138 139
138 140
138 143
138 144
138 145
138 146
139 140
139 147
139 150
139 151
139 152
140 214
140 217
140 249
140 250
140 251
140 252
141 142
141 147
141 148
141 149
142 209
142 228
142 233
142 249
142 253
142 254
143 144
143 145
143 146
143 153
143 154
144 145
144 146
144 150
144 159
144 160
145 146
145 168
145 171
145 172
146 215
146 250
146 255
146 256
146 257
146 258
147 148
147 149
147 150
147 151
147 152
148 149
148 153
148 164
148 168
148 169
148 170
149 191
149 201
149 253
149 259
149 260
149 261
150 151
150 152
150 159
150 160
151 152
151 163
151 166
151 167
152 197
152 251
152 259
152 262
152 263
152 264
153 154
153 164
153 168
153 169
153 170
154 180
154 218
154 236
154 255
154 265
154 266
155 156
155 157
155 158
155 159
155 161
155 162
156 157
156 158
156 163
156 164
156 165
157 158
157 166
157 171
157 173
158 219
158 246
158 267
158 268
158 269
158 270
159 160
159 161
159 162
160 210
160 244
160 256
160 262
160 271
160 272
161 162
161 169
161 174
161 175
162 220
162 247
162 267
162 271
162 273
162 274
163 164
163 165
163 166
163 167
164 165
164 168
164 169
164 170
165 221
165 229
165 268
165 275
165 276
165 277
166 167
166 171
166 173
167 211
167 225
167 263
167 275
167 278
167 279
168 169
168 170
168 171
168 172
169 170
169 174
169 175
170 260
170 265
170 276
170 280
170 281
170 282
171 172
171 173
172 192
172 230
172 257
172 280
172 283
172 284
173 234
173 237
173 269
173 278
173 283
173 285
174 175
174 176
175 202
175 238
175 273
175 281
175 286
175 287
176 181
176 193
176 226
176 241
176 286
176 288
177 178
177 179
177 180
177 181
177 182
177 183
177 195
177 196
177 197
177 198
178 179
178 180
178 181
178 182
178 199
178 200
178 201
178 202
178 203
179 180
179 181
179 182
179 187
179 206
179 240
179 241
179 242
180 181
180 182
180 218
180 236
180 255
180 265
180 266
181 182
181 193
181 226
181 241
181 286
181 288
182 291
183 184
183 185
183 186
183 187
183 188
183 195
183 196
183 197
183 198
184 185
184 186
184 187
184 188
184 204
184 205
184 206
184 207
184 208
185 186
185 187
185 188
185 204
185 209
185 210
185 211
185 212
186 187
186 188
186 223
186 228
186 229
186 230
186 231
187 188
187 206
187 240
187 241
187 242
188 299
189 190
189 191
189 192
189 193
189 194
189 200
189 232
189 233
189 234
189 235
190 191
190 192
190 193
190 194
190 207
190 213
190 243
190 244
190 245
191 192
191 193
191 194
191 201
191 253
191 259
191 260
191 261
192 193
192 194
192 230
192 257
192 280
192 283
192 284
193 194
193 226
193 241
193 286
193 288
194 289
195 196
195 197
195 198
195 223
195 224
195 225
195 226
195 227
196 197
196 198
196 240
196 243
196 246
196 247
196 248
197 198
197 251
197 259
197 262
197 263
197 264
198 306
199 200
199 201
199 202
199 203
199 205
199 213
199 214
199 215
199 216
200 201
200 202
200 203
200 232
200 233
200 234
200 235
201 202
201 203
201 253
201 259
201 260
201 261
202 203
202 238
202 273
202 281
202 286
202 287
203 314
204 205
204 206
204 207
204 208
204 209
204 210
204 211
204 212
205 206
205 207
205 208
205 213
205 214
205 215
205 216
206 207
206 208
206 240
206 241
206 242
207 208
207 213
207 243
207 244
207 245
208 301
209 210
209 211
209 212
209 228
209 233
209 249
209 253
209 254
210 211
210 212
210 244
210 256
210 262
210 271
210 272
211 212
211 225
211 263
211 275
211 278
211 279
212 300
213 214
213 215
213 216
213 243
213 244
213 245
214 215
214 216
214 217
214 249
214 250
214 251
214 252
215 216
215 250
215 255
215 256
215 257
215 258
216 304
217 218
217 219
217 220
217 221
217 222
217 249
217 250
217 251
217 252
218 219
218 220
218 221
218 222
218 236
218 255
218 265
218 266
219 220
219 221
219 222
219 246
219 267
219 268
219 269
219 270
220 221
220 222
220 247
220 267
220 271
220 273
220 274
221 222
221 229
221 268
221 275
221 276
221 277
222 316
223 224
223 225
223 226
223 227
223 228
223 229
223 230
223 231
224 225
224 226
224 227
224 232
224 236
224 237
224 238
224 239
225 226
225 227
225 263
225 275
225 278
225 279
226 227
226 241
226 286
226 288
227 311
228 229
228 230
228 231
228 233
228 249
228 253
228 254
229 230
229 231
229 268
229 275
229 276
229 277
230 231
230 257
230 280
230 283
230 284
231 296
232 233
232 234
232 235
232 236
232 237
232 238
232 239
233 234
233 235
233 249
233 253
233 254
234 235
234 237
234 269
234 278
234 283
234 285
235 293
236 237
236 238
236 239
236 255
236 265
236 266
237 238
237 239
237 269
237 278
237 283
237 285
238 239
238 273
238 281
238 286
238 287
239 310
240 241
240 242
240 243
240 246
240 247
240 248
241 242
241 286
241 288
242 319
243 244
243 245
243 246
243 247
243 248
244 245
244 256
244 262
244 271
244 272
245 303
246 247
246 248
246 267
246 268
246 269
246 270
247 248
247 267
247 271
247 273
247 274
248 307
249 250
249 251
249 252
249 253
249 254
250 251
250 252
250 255
250 256
250 257
250 258
251 252
251 259
251 262
251 263
251 264
252 309
253 254
253 259
253 260
253 261
254 318
255 256
255 257
255 258
255 265
255 266
256 257
256 258
256 262
256 271
256 272
257 258
257 280
257 283
257 284
258 292
259 260
259 261
259 262
259 263
259 264
260 261
260 265
260 276
260 280
260 281
260 282
261 298
262 263
262 264
262 271
262 272
263 264
263 275
263 278
263 279
264 317
265 266
265 276
265 280
265 281
265 282
266 312
267 268
267 269
267 270
267 271
267 273
267 274
268 269
268 270
268 275
268 276
268 277
269 270
269 278
269 283
269 285
270 297
271 272
271 273
271 274
272 315
273 274
273 281
273 286
273 287
274 320
275 276
275 277
275 278
275 279
276 277
276 280
276 281
276 282
277 295
278 279
278 283
278 285
279 308
280 281
280 282
280 283
280 284
281 282
281 286
281 287
282 302
283 284
283 285
284 294
285 313
286 287
286 288
287 290
288 305
